CuAlO2 BenkoF84                         
   1.00000000000000     
     1.4200545446    0.8198688751    5.62827907739
    -1.4200545446    0.8198688751    5.62827907739
    -0.0000000000   -1.6397377402    5.62827907739
   Cu   Al   O 
     1     1     2
Direct
 -0.0000000000000000 -0.0000000000000000 -0.0000000000000000
  0.5000000000000000  0.5000000000000000  0.5000000000000000
  0.1095639522757872  0.1095639522757872  0.1095639522757872
  0.8904360477242128  0.8904360477242128  0.8904360477242128
