CuAlO2 BenkoF84                         
   1.00000000000000     
     1.4200545446448871    0.8198688750887159    5.6282790773871927
    -1.4200545446448869    0.8198688750887159    5.6282790773871918
     0.0000000000000000   -1.6397377402884670    5.6282790773931879
   Cu   Al   O 
     1     1     2
Direct
  0.0000000000000000  0.0000000000000000  0.0000000000000000
  0.5000000000000000  0.5000000000000000  0.5000000000000000
  0.1095639522757850  0.1095639522757850  0.1095639522757850
  0.8904360477242150  0.8904360477242150  0.8904360477242150
 
  0.00000000E+00  0.00000000E+00  0.00000000E+00
  0.00000000E+00  0.00000000E+00  0.00000000E+00
  0.00000000E+00  0.00000000E+00  0.00000000E+00
  0.00000000E+00  0.00000000E+00  0.00000000E+00
