EMC 1.51py
61
Reciprocal
   0.5000000000    0.0000000000    0.0000000000 0.01
   0.4957290545    0.0042709455    0.0000000000 0.01
   0.4978645273    0.0021354727    0.0000000000 0.01
   0.5021354727   -0.0021354727    0.0000000000 0.01
   0.5042709455   -0.0042709455    0.0000000000 0.01
   0.4975341685   -0.0024658315    0.0049316630 0.01
   0.4987670842   -0.0012329158    0.0024658315 0.01
   0.5012329158    0.0012329158   -0.0024658315 0.01
   0.5024658315    0.0024658315   -0.0049316630 0.01
   0.4830724298   -0.0169275702   -0.0169275702 0.01
   0.4915362149   -0.0084637851   -0.0084637851 0.01
   0.5084637851    0.0084637851    0.0084637851 0.01
   0.5169275702    0.0169275702    0.0169275702 0.01
   0.4932632230    0.0018051139    0.0049316630 0.01
   0.4953986958   -0.0003303588    0.0049316630 0.01
   0.4996696412   -0.0046013042    0.0049316630 0.01
   0.5018051139   -0.0067367770    0.0049316630 0.01
   0.4944961388    0.0030380297    0.0024658315 0.01
   0.4966316115    0.0009025570    0.0024658315 0.01
   0.5009025570   -0.0033683885    0.0024658315 0.01
   0.5030380297   -0.0055038612    0.0024658315 0.01
   0.4969619703    0.0055038612   -0.0024658315 0.01
   0.4990974430    0.0033683885   -0.0024658315 0.01
   0.5033683885   -0.0009025570   -0.0024658315 0.01
   0.5055038612   -0.0030380297   -0.0024658315 0.01
   0.4981948861    0.0067367770   -0.0049316630 0.01
   0.5003303588    0.0046013042   -0.0049316630 0.01
   0.5046013042    0.0003303588   -0.0049316630 0.01
   0.5067367770   -0.0018051139   -0.0049316630 0.01
   0.4788014844   -0.0126566247   -0.0169275702 0.01
   0.4809369571   -0.0147920974   -0.0169275702 0.01
   0.4852079026   -0.0190630429   -0.0169275702 0.01
   0.4873433753   -0.0211985156   -0.0169275702 0.01
   0.4872652695   -0.0041928396   -0.0084637851 0.01
   0.4894007422   -0.0063283124   -0.0084637851 0.01
   0.4936716876   -0.0105992578   -0.0084637851 0.01
   0.4958071604   -0.0127347305   -0.0084637851 0.01
   0.5041928396    0.0127347305    0.0084637851 0.01
   0.5063283124    0.0105992578    0.0084637851 0.01
   0.5105992578    0.0063283124    0.0084637851 0.01
   0.5127347305    0.0041928396    0.0084637851 0.01
   0.5126566247    0.0211985156    0.0169275702 0.01
   0.5147920974    0.0190630429    0.0169275702 0.01
   0.5190630429    0.0147920974    0.0169275702 0.01
   0.5211985156    0.0126566247    0.0169275702 0.01
   0.4806065983   -0.0193934017   -0.0119959072 0.01
   0.4818395141   -0.0181604859   -0.0144617387 0.01
   0.4843053456   -0.0156946544   -0.0193934017 0.01
   0.4855382614   -0.0144617386   -0.0218592331 0.01
   0.4890703834   -0.0109296166   -0.0035321221 0.01
   0.4903032992   -0.0096967008   -0.0059979536 0.01
   0.4927691307   -0.0072308693   -0.0109296166 0.01
   0.4940020464   -0.0059979536   -0.0133954481 0.01
   0.5059979536    0.0059979536    0.0133954481 0.01
   0.5072308693    0.0072308693    0.0109296166 0.01
   0.5096967008    0.0096967008    0.0059979536 0.01
   0.5109296166    0.0109296166    0.0035321221 0.01
   0.5144617386    0.0144617386    0.0218592331 0.01
   0.5156946544    0.0156946544    0.0193934017 0.01
   0.5181604859    0.0181604859    0.0144617387 0.01
   0.5193934017    0.0193934017    0.0119959072 0.01
