EMC 1.51py
61
Reciprocal
   0.0000000000    0.0000000000    0.0000000000 0.01
  -0.0085418909    0.0085418909    0.0000000000 0.01
  -0.0042709455    0.0042709455    0.0000000000 0.01
   0.0042709455   -0.0042709455    0.0000000000 0.01
   0.0085418909   -0.0085418909    0.0000000000 0.01
  -0.0049316630   -0.0049316630    0.0098633260 0.01
  -0.0024658315   -0.0024658315    0.0049316630 0.01
   0.0024658315    0.0024658315   -0.0049316630 0.01
   0.0049316630    0.0049316630   -0.0098633260 0.01
  -0.0338551403   -0.0338551403   -0.0338551403 0.01
  -0.0169275702   -0.0169275702   -0.0169275702 0.01
   0.0169275702    0.0169275702    0.0169275702 0.01
   0.0338551403    0.0338551403    0.0338551403 0.01
  -0.0134735539    0.0036102279    0.0098633260 0.01
  -0.0092026085   -0.0006607176    0.0098633260 0.01
  -0.0006607176   -0.0092026085    0.0098633260 0.01
   0.0036102279   -0.0134735539    0.0098633260 0.01
  -0.0110077224    0.0060760594    0.0049316630 0.01
  -0.0067367770    0.0018051139    0.0049316630 0.01
   0.0018051139   -0.0067367770    0.0049316630 0.01
   0.0060760594   -0.0110077224    0.0049316630 0.01
  -0.0060760594    0.0110077224   -0.0049316630 0.01
  -0.0018051139    0.0067367770   -0.0049316630 0.01
   0.0067367770   -0.0018051139   -0.0049316630 0.01
   0.0110077224   -0.0060760594   -0.0049316630 0.01
  -0.0036102279    0.0134735539   -0.0098633260 0.01
   0.0006607176    0.0092026085   -0.0098633260 0.01
   0.0092026085    0.0006607176   -0.0098633260 0.01
   0.0134735539   -0.0036102279   -0.0098633260 0.01
  -0.0423970312   -0.0253132494   -0.0338551403 0.01
  -0.0381260858   -0.0295841949   -0.0338551403 0.01
  -0.0295841949   -0.0381260858   -0.0338551403 0.01
  -0.0253132494   -0.0423970312   -0.0338551403 0.01
  -0.0254694611   -0.0083856793   -0.0169275702 0.01
  -0.0211985156   -0.0126566247   -0.0169275702 0.01
  -0.0126566247   -0.0211985156   -0.0169275702 0.01
  -0.0083856793   -0.0254694611   -0.0169275702 0.01
   0.0083856793    0.0254694611    0.0169275702 0.01
   0.0126566247    0.0211985156    0.0169275702 0.01
   0.0211985156    0.0126566247    0.0169275702 0.01
   0.0254694611    0.0083856793    0.0169275702 0.01
   0.0253132494    0.0423970312    0.0338551403 0.01
   0.0295841949    0.0381260858    0.0338551403 0.01
   0.0381260858    0.0295841949    0.0338551403 0.01
   0.0423970312    0.0253132494    0.0338551403 0.01
  -0.0387868033   -0.0387868033   -0.0239918143 0.01
  -0.0363209718   -0.0363209718   -0.0289234773 0.01
  -0.0313893088   -0.0313893088   -0.0387868033 0.01
  -0.0289234773   -0.0289234773   -0.0437184663 0.01
  -0.0218592332   -0.0218592332   -0.0070642442 0.01
  -0.0193934017   -0.0193934017   -0.0119959072 0.01
  -0.0144617386   -0.0144617386   -0.0218592331 0.01
  -0.0119959071   -0.0119959071   -0.0267908961 0.01
   0.0119959071    0.0119959071    0.0267908961 0.01
   0.0144617386    0.0144617386    0.0218592331 0.01
   0.0193934017    0.0193934017    0.0119959072 0.01
   0.0218592332    0.0218592332    0.0070642442 0.01
   0.0289234773    0.0289234773    0.0437184663 0.01
   0.0313893088    0.0313893088    0.0387868033 0.01
   0.0363209718    0.0363209718    0.0289234773 0.01
   0.0387868033    0.0387868033    0.0239918143 0.01
