CuAlO2 BenkoF84                         
   1.00000000000000     
     1.4199747911891576    0.8198228294096079    5.6281151681627062
    -1.4199747911891583    0.8198228294096079    5.6281151681627062
    -0.0000000000000003   -1.6396456489311091    5.6281151681687387
   Cu   Al   O 
     1     1     2
Direct
  0.0000000000000000  0.0000000000000000  0.0000000000000000
  0.5000000000000000  0.5000000000000000  0.5000000000000000
  0.1095671501512721  0.1095671501512721  0.1095671501512721
  0.8904328498487278  0.8904328498487278  0.8904328498487278
 
  0.00000000E+00  0.00000000E+00  0.00000000E+00
  0.00000000E+00  0.00000000E+00  0.00000000E+00
  0.00000000E+00  0.00000000E+00  0.00000000E+00
  0.00000000E+00  0.00000000E+00  0.00000000E+00
