# Minimal electronic part
 ICHARG = 11
 LCHARG = F
 LWAVE = F

 ENCUT = 550
 PREC = Accurate
 LREAL = .False.
 EDIFF = 1E-7
 ISPIN = 1
 ISMEAR = 0; ISIGMA = 0.05
 NELM = 60
 ALGO = Fast
 NBANDS = 36

 GGA = PS

# geometry opt
 IBRION = -1        # 1: quasi-newton 8:DFPT
