EMC 1.51py
61
Reciprocal
   0.0000917294    0.4119938190    0.5882394080 0.01
  -0.0084501615    0.4205357099    0.5882394080 0.01
  -0.0041792161    0.4162647645    0.5882394080 0.01
   0.0043626748    0.4077228735    0.5882394080 0.01
   0.0086336203    0.4034519281    0.5882394080 0.01
  -0.0048399336    0.4070621560    0.5981027340 0.01
  -0.0023741021    0.4095279875    0.5931710710 0.01
   0.0025575609    0.4144596505    0.5833077450 0.01
   0.0050233924    0.4169254820    0.5783760820 0.01
  -0.0337634109    0.3781386787    0.5543842677 0.01
  -0.0168358408    0.3950662488    0.5713118378 0.01
   0.0170192995    0.4289213892    0.6051669782 0.01
   0.0339468697    0.4458489593    0.6220945483 0.01
  -0.0133818245    0.4156040469    0.5981027340 0.01
  -0.0091108791    0.4113331014    0.5981027340 0.01
  -0.0005689882    0.4027912105    0.5981027340 0.01
   0.0037019573    0.3985202651    0.5981027340 0.01
  -0.0109159930    0.4180698784    0.5931710710 0.01
  -0.0066450476    0.4137989329    0.5931710710 0.01
   0.0018968433    0.4052570420    0.5931710710 0.01
   0.0061677888    0.4009860966    0.5931710710 0.01
  -0.0059843300    0.4230015414    0.5833077450 0.01
  -0.0017133845    0.4187305960    0.5833077450 0.01
   0.0068285064    0.4101887051    0.5833077450 0.01
   0.0110994518    0.4059177596    0.5833077450 0.01
  -0.0035184985    0.4254673729    0.5783760820 0.01
   0.0007524470    0.4211964275    0.5783760820 0.01
   0.0092943379    0.4126545366    0.5783760820 0.01
   0.0135652833    0.4083835911    0.5783760820 0.01
  -0.0423053018    0.3866805696    0.5543842677 0.01
  -0.0380343564    0.3824096241    0.5543842677 0.01
  -0.0294924655    0.3738677332    0.5543842677 0.01
  -0.0252215200    0.3695967878    0.5543842677 0.01
  -0.0253777317    0.4036081397    0.5713118378 0.01
  -0.0211067862    0.3993371943    0.5713118378 0.01
  -0.0125648953    0.3907953034    0.5713118378 0.01
  -0.0082939499    0.3865243579    0.5713118378 0.01
   0.0084774086    0.4374632801    0.6051669782 0.01
   0.0127483541    0.4331923346    0.6051669782 0.01
   0.0212902450    0.4246504437    0.6051669782 0.01
   0.0255611905    0.4203794983    0.6051669782 0.01
   0.0254049788    0.4543908502    0.6220945483 0.01
   0.0296759243    0.4501199048    0.6220945483 0.01
   0.0382178152    0.4415780139    0.6220945483 0.01
   0.0424887606    0.4373070684    0.6220945483 0.01
  -0.0386950739    0.3732070157    0.5642475937 0.01
  -0.0362292424    0.3756728472    0.5593159307 0.01
  -0.0312975794    0.3806045102    0.5494526047 0.01
  -0.0288317479    0.3830703417    0.5445209417 0.01
  -0.0217675038    0.3901345858    0.5811751638 0.01
  -0.0193016723    0.3926004173    0.5762435008 0.01
  -0.0143700093    0.3975320804    0.5663801749 0.01
  -0.0119041777    0.3999979119    0.5614485119 0.01
   0.0120876365    0.4239897261    0.6150303041 0.01
   0.0145534680    0.4264555576    0.6100986411 0.01
   0.0194851311    0.4313872207    0.6002353152 0.01
   0.0219509626    0.4338530522    0.5953036522 0.01
   0.0290152067    0.4409172963    0.6319578743 0.01
   0.0314810382    0.4433831278    0.6270262113 0.01
   0.0364127012    0.4483147908    0.6171628853 0.01
   0.0388785327    0.4507806223    0.6122312223 0.01
